145542
77,2,100,104,37,103,94,66,40,10,84,47,53,70,35,38,72,1,61,21,20,16,89,63,19,55,15,87,12,30,64,51,54,4,29,28,7,96,105,97,68,5,39,76,45,85,24,44,32,81,71,50,99,98,67,18,80,41,49,25,33,13,46,60,101,73,82,56,79,8,91,22,11,92,88,75,27,26,9,58,65,43,86,0,57,23,42,78,90,59,95,17,31,14,3,102,34,74,62,6,52,83,48,36,69,93
